NAME: test1828
TYPE: TSP
DIMENSION: 11
EDGE_WEIGHT_TYPE: EUC_2D
NODE_COORD_SECTION
1 49.10913997667969 51.96278172629892
2 76.26637074185142 92.24129870604695
3 61.38553944240286 96.09890579386848
4 26.48405291794803 5.6081155445736774
5 87.40690146293498 83.07425469072639
6 99.68911106979392 71.10790733153213
7 23.07952909766047 60.66212039311417
8 89.45204589958172 78.59131336350966
9 27.316578121773173 92.72548718888233
10 4.693881282307865 76.48741948750374
11 57.28438592431817 11.708732733904947
EOF
